     Program PWSCF v.6.4 starts on  3Aug2019 at 16:51:11

     R & G space division:  proc/nbgrp/npool/nimage =      40
     Waiting for input...
     Reading input from standard input

     Current dimensions of program PWSCF are:
     Max number of different atomic species (ntypx) = 10
     Max number of k-points (npk) =  40000
     Max angular momentum in pseudopotentials (lmaxx) =  3
     Message from routine iosys:
     london is obsolete, use "vdw_corr='grimme-d2'" instead
               file Si.pbe-n-kjpaw_psl.1.0.0.UPF: wavefunction(s)  3S 3P renormalized

     Parameters for Dispersion (Grimme-D2) Correction:
       atom      VdW radius       C_6

        Si         3.243        320.200
     Message from routine setup:
     At least one non s.o. pseudo

     bravais-lattice index     =            0
     lattice parameter (alat)  =       7.2571  a.u.
     unit-cell volume          =     270.2564 (a.u.)^3
     number of atoms/cell      =            2
     number of atomic types    =            1
     number of electrons       =         8.00
     number of Kohn-Sham states=           12
     kinetic-energy cutoff     =      60.0000  Ry
     charge density cutoff     =     240.0000  Ry
     convergence threshold     =      1.0E-12
     mixing beta               =       0.7000
     number of iterations used =            8  plain     mixing
     Exchange-correlation      = SLA PW PBX PBC ( 1  4  3  4 0 0)
     Non magnetic calculation with spin-orbit

     celldm(1)=   7.257109  celldm(2)=   0.000000  celldm(3)=   0.000000
     celldm(4)=   0.000000  celldm(5)=   0.000000  celldm(6)=   0.000000

     crystal axes: (cart. coord. in units of alat)
               a(1) = (   0.000000   0.707107   0.707107 )
               a(2) = (   0.707107   0.000000   0.707107 )
               a(3) = (   0.707107   0.707107   0.000000 )

     reciprocal axes: (cart. coord. in units 2 pi/alat)
               b(1) = ( -0.707107  0.707107  0.707107 )
               b(2) = (  0.707107 -0.707107  0.707107 )
               b(3) = (  0.707107  0.707107 -0.707107 )

     PseudoPot. # 1 for Si read from file:
     ../PP/Si.pbe-n-kjpaw_psl.1.0.0.UPF
     MD5 check sum: c39c59da582df4a0d9f10159256ea34e
     Pseudo is Projector augmented-wave + core cor, Zval =  4.0
     Generated using "atomic" code by A. Dal Corso v.6.3
     Shape of augmentation charge: PSQ
     Using radial grid of 1141 points,  6 beta functions with:
                l(1) =   0
                l(2) =   0
                l(3) =   1
                l(4) =   1
                l(5) =   2
                l(6) =   2
     Q(r) pseudized with 0 coefficients

     atomic species   valence    mass     pseudopotential
        Si             4.00    28.08550     Si( 1.00)

     48 Sym. Ops., with inversion, found (36 have fractional translation)

                                    s                        frac. trans.

      isym =  1     identity

 cryst.   s( 1) = (     1          0          0      )
                  (     0          1          0      )
                  (     0          0          1      )

 cart.    s( 1) = (  1.0000000 -0.0000000  0.0000000 )
                  ( -0.0000000  1.0000000  0.0000000 )
                  ( -0.0000000  0.0000000  1.0000000 )

      isym =  2     180 deg rotation - cart. axis [0,0,1]

 cryst.   s( 2) = (     0          1         -1      )    f =(  0.0000000 )
                  (     1          0         -1      )       (  0.0000000 )
                  (     0          0         -1      )       (  0.5000000 )

 cart.    s( 2) = ( -1.0000000  0.0000000  0.0000000 )    f =(  0.3535534 )
                  (  0.0000000 -1.0000000  0.0000000 )       (  0.3535534 )
                  (  0.0000000 -0.0000000  1.0000000 )       (  0.0000000 )

[...]

 cryst.   s( 6) = (     0         -1          0      )
                  (    -1          0          0      )
                  (     0          0         -1      )

 cart.    s( 6) = (  0.0000000 -1.0000000 -0.0000000 )
                  ( -1.0000000  0.0000000 -0.0000000 )
                  ( -0.0000000  0.0000000 -1.0000000 )

[...]

 cryst.   s( 9) = (    -1          1          0      )    f =(  0.0000000 )
                  (     0          1          0      )       (  0.5000000 )
                  (     0          1         -1      )       (  0.0000000 )

 cart.    s( 9) = (  0.0000000  0.0000000  1.0000000 )    f =(  0.3535534 )
                  (  0.0000000 -1.0000000 -0.0000000 )       (  0.0000000 )
                  (  1.0000000 -0.0000000 -0.0000000 )       (  0.3535534 )

[...]

 cryst.   s(10) = (     0          0         -1      )
                  (     0         -1          0      )
                  (    -1          0          0      )

 cart.    s(10) = ( -0.0000000  0.0000000 -1.0000000 )
                  ( -0.0000000 -1.0000000  0.0000000 )
                  ( -1.0000000 -0.0000000  0.0000000 )

[...]

 cryst.   s(11) = (     0          0          1      )    f =(  0.0000000 )
                  (    -1          0          1      )       (  0.0000000 )
                  (     0         -1          1      )       (  0.5000000 )

 cart.    s(11) = ( -0.0000000 -0.0000000  1.0000000 )    f =(  0.3535534 )
                  ( -0.0000000  1.0000000 -0.0000000 )       (  0.3535534 )
                  ( -1.0000000  0.0000000 -0.0000000 )       (  0.0000000 )

[...]

      isym = 24     120 deg rotation - cart. axis [-1,-1,1]

[...]

      isym = 25     inversion

[...]

      isym = 26     inv. 180 deg rotation - cart. axis [0,0,1]

[...]

 cryst.   s(45) = (     0         -1          0      )
                  (     0          0         -1      )
                  (    -1          0          0      )

 cart.    s(45) = (  0.0000000 -0.0000000 -1.0000000 )
                  ( -1.0000000 -0.0000000  0.0000000 )
                  ( -0.0000000 -1.0000000  0.0000000 )

[...]

      isym = 48     inv. 120 deg rotation - cart. axis [-1,-1,1]

 cryst.   s(48) = (     0          1          0      )    f =(  0.0000000 )
                  (    -1          1          0      )       (  0.5000000 )
                  (     0          1         -1      )       (  0.0000000 )

 cart.    s(48) = (  0.0000000  0.0000000  1.0000000 )    f =(  0.3535534 )
                  ( -1.0000000  0.0000000 -0.0000000 )       (  0.0000000 )
                  ( -0.0000000  1.0000000 -0.0000000 )       (  0.3535534 )

   Cartesian axes

     site n.     atom                  positions (alat units)
         1           Si  tau(   1) = (   0.1767767   0.1767767   0.1767767  )
         2           Si  tau(   2) = (  -0.1767767  -0.1767767  -0.1767767  )

   Crystallographic axes

     site n.     atom                  positions (cryst. coord.)
         1           Si  tau(   1) = (  0.1250000  0.1250000  0.1250000  )
         2           Si  tau(   2) = ( -0.1250000 -0.1250000 -0.1250000  )

     number of k points=    56
                       cart. coord. in units 2pi/alat
        k(    1) = (   0.0000000   0.0000000   0.0000000), wk =   0.0007513
        k(    2) = (   0.0642824   0.0642824  -0.0642824), wk =   0.0060105
        k(    3) = (   0.1285649   0.1285649  -0.1285649), wk =   0.0060105
        k(    4) = (   0.1928473   0.1928473  -0.1928473), wk =   0.0060105
        k(    5) = (   0.2571297   0.2571297  -0.2571297), wk =   0.0060105
        k(    6) = (   0.3214122   0.3214122  -0.3214122), wk =   0.0060105
        k(    7) = (   0.1285649   0.0000000  -0.0000000), wk =   0.0045079
        k(    8) = (   0.1928473   0.0642824  -0.0642824), wk =   0.0180316
        k(    9) = (   0.2571297   0.1285649  -0.1285649), wk =   0.0180316
        k(   10) = (   0.3214122   0.1928473  -0.1928473), wk =   0.0180316
        k(   11) = (   0.3856946   0.2571297  -0.2571297), wk =   0.0180316
        k(   12) = (  -0.2571297  -0.3856946   0.3856946), wk =   0.0180316
        k(   13) = (  -0.1928473  -0.3214122   0.3214122), wk =   0.0180316
        k(   14) = (  -0.1285649  -0.2571297   0.2571297), wk =   0.0180316
        k(   15) = (  -0.0642824  -0.1928473   0.1928473), wk =   0.0180316
        k(   16) = (  -0.0000000  -0.1285649   0.1285649), wk =   0.0090158
        k(   17) = (   0.2571297   0.0000000  -0.0000000), wk =   0.0045079
        k(   18) = (   0.3214122   0.0642824  -0.0642824), wk =   0.0180316
        k(   19) = (   0.3856946   0.1285649  -0.1285649), wk =   0.0180316
        k(   20) = (   0.4499770   0.1928473  -0.1928473), wk =   0.0180316
        k(   21) = (  -0.1928473  -0.4499770   0.4499770), wk =   0.0180316
        k(   22) = (  -0.1285649  -0.3856946   0.3856946), wk =   0.0180316
        k(   23) = (  -0.0642824  -0.3214122   0.3214122), wk =   0.0180316
        k(   24) = (   0.0000000  -0.2571297   0.2571297), wk =   0.0090158
        k(   25) = (   0.3856946   0.0000000  -0.0000000), wk =   0.0045079
        k(   26) = (   0.4499770   0.0642824  -0.0642824), wk =   0.0180316
        k(   27) = (   0.5142595   0.1285649  -0.1285649), wk =   0.0180316
        k(   28) = (  -0.1285649  -0.5142595   0.5142595), wk =   0.0180316
        k(   29) = (  -0.0642824  -0.4499770   0.4499770), wk =   0.0180316
        k(   30) = (  -0.0000000  -0.3856946   0.3856946), wk =   0.0090158
        k(   31) = (   0.5142595   0.0000000  -0.0000000), wk =   0.0045079
        k(   32) = (   0.5785419   0.0642824  -0.0642824), wk =   0.0180316
        k(   33) = (  -0.0642824  -0.5785419   0.5785419), wk =   0.0180316
        k(   34) = (  -0.0000000  -0.5142595   0.5142595), wk =   0.0090158
        k(   35) = (   0.6428243  -0.0000000   0.0000000), wk =   0.0045079
        k(   36) = (  -0.0000000  -0.6428243   0.6428243), wk =   0.0090158
        k(   37) = (   0.2571297   0.1285649   0.0000000), wk =   0.0180316
        k(   38) = (   0.3214122   0.1928473  -0.0642824), wk =   0.0360631
        k(   39) = (   0.3856946   0.2571297  -0.1285649), wk =   0.0360631
        k(   40) = (  -0.2571297  -0.3856946   0.5142595), wk =   0.0360631
        k(   41) = (   0.3856946   0.1285649  -0.0000000), wk =   0.0180316
        k(   42) = (   0.4499770   0.1928473  -0.0642824), wk =   0.0360631
        k(   43) = (  -0.1928473  -0.4499770   0.5785419), wk =   0.0360631
        k(   44) = (  -0.1285649  -0.3856946   0.5142595), wk =   0.0360631
        k(   45) = (  -0.0642824  -0.3214122   0.4499770), wk =   0.0360631
        k(   46) = (   0.0000000  -0.2571297   0.3856946), wk =   0.0180316
        k(   47) = (   0.5142595   0.1285649   0.0000000), wk =   0.0180316
        k(   48) = (  -0.1285649  -0.5142595   0.6428243), wk =   0.0360631
        k(   49) = (  -0.0642824  -0.4499770   0.5785419), wk =   0.0360631
        k(   50) = (   0.0000000  -0.3856946   0.5142595), wk =   0.0180316
        k(   51) = (  -0.0642824  -0.5785419   0.7071068), wk =   0.0180316
        k(   52) = (  -0.0000000  -0.5142595   0.6428243), wk =   0.0180316
        k(   53) = (  -0.1928473  -0.4499770   0.7071068), wk =   0.0180316
        k(   54) = (  -0.1285649  -0.3856946   0.6428243), wk =   0.0360631
        k(   55) = (  -0.0642824  -0.4499770   0.7071068), wk =   0.0180316
        k(   56) = (   0.0000000  -0.3856946   0.6428243), wk =   0.0180316

                       cryst. coord.
        k(    1) = (   0.0000000   0.0000000   0.0000000), wk =   0.0007513
        k(    2) = (   0.0000000   0.0000000   0.0909091), wk =   0.0060105
        k(    3) = (   0.0000000   0.0000000   0.1818182), wk =   0.0060105
        k(    4) = (   0.0000000   0.0000000   0.2727273), wk =   0.0060105
        k(    5) = (   0.0000000   0.0000000   0.3636364), wk =   0.0060105
        k(    6) = (  -0.0000000  -0.0000000   0.4545455), wk =   0.0060105
        k(    7) = (   0.0000000   0.0909091   0.0909091), wk =   0.0045079
        k(    8) = (   0.0000000   0.0909091   0.1818182), wk =   0.0180316
        k(    9) = (  -0.0000000   0.0909091   0.2727273), wk =   0.0180316
        k(   10) = (  -0.0000000   0.0909091   0.3636364), wk =   0.0180316
        k(   11) = (   0.0000000   0.0909091   0.4545455), wk =   0.0180316
        k(   12) = (  -0.0000000   0.0909091  -0.4545455), wk =   0.0180316
        k(   13) = (   0.0000000   0.0909091  -0.3636364), wk =   0.0180316
        k(   14) = (  -0.0000000   0.0909091  -0.2727273), wk =   0.0180316
        k(   15) = (  -0.0000000   0.0909091  -0.1818182), wk =   0.0180316
        k(   16) = (   0.0000000   0.0909091  -0.0909091), wk =   0.0090158
        k(   17) = (   0.0000000   0.1818182   0.1818182), wk =   0.0045079
        k(   18) = (  -0.0000000   0.1818182   0.2727273), wk =   0.0180316
        k(   19) = (   0.0000000   0.1818182   0.3636364), wk =   0.0180316
        k(   20) = (  -0.0000000   0.1818182   0.4545455), wk =   0.0180316
        k(   21) = (  -0.0000000   0.1818182  -0.4545455), wk =   0.0180316
        k(   22) = (   0.0000000   0.1818182  -0.3636364), wk =   0.0180316
        k(   23) = (   0.0000000   0.1818182  -0.2727273), wk =   0.0180316
        k(   24) = (   0.0000000   0.1818182  -0.1818182), wk =   0.0090158
        k(   25) = (  -0.0000000   0.2727273   0.2727273), wk =   0.0045079
        k(   26) = (   0.0000000   0.2727273   0.3636364), wk =   0.0180316
        k(   27) = (  -0.0000000   0.2727273   0.4545455), wk =   0.0180316
        k(   28) = (  -0.0000000   0.2727273  -0.4545455), wk =   0.0180316
        k(   29) = (  -0.0000000   0.2727273  -0.3636364), wk =   0.0180316
        k(   30) = (  -0.0000000   0.2727273  -0.2727273), wk =   0.0090158
        k(   31) = (   0.0000000   0.3636364   0.3636364), wk =   0.0045079
        k(   32) = (  -0.0000000   0.3636364   0.4545455), wk =   0.0180316
        k(   33) = (   0.0000000   0.3636364  -0.4545455), wk =   0.0180316
        k(   34) = (  -0.0000000   0.3636364  -0.3636364), wk =   0.0090158
        k(   35) = (   0.0000000   0.4545455   0.4545455), wk =   0.0045079
        k(   36) = (   0.0000000   0.4545455  -0.4545455), wk =   0.0090158
        k(   37) = (   0.0909091   0.1818182   0.2727273), wk =   0.0180316
        k(   38) = (   0.0909091   0.1818182   0.3636364), wk =   0.0360631
        k(   39) = (   0.0909091   0.1818182   0.4545455), wk =   0.0360631
        k(   40) = (   0.0909091   0.1818182  -0.4545455), wk =   0.0360631
        k(   41) = (   0.0909091   0.2727273   0.3636364), wk =   0.0180316
        k(   42) = (   0.0909091   0.2727273   0.4545455), wk =   0.0360631
        k(   43) = (   0.0909091   0.2727273  -0.4545455), wk =   0.0360631
        k(   44) = (   0.0909091   0.2727273  -0.3636364), wk =   0.0360631
        k(   45) = (   0.0909091   0.2727273  -0.2727273), wk =   0.0360631
        k(   46) = (   0.0909091   0.2727273  -0.1818182), wk =   0.0180316
        k(   47) = (   0.0909091   0.3636364   0.4545455), wk =   0.0180316
        k(   48) = (   0.0909091   0.3636364  -0.4545455), wk =   0.0360631
        k(   49) = (   0.0909091   0.3636364  -0.3636364), wk =   0.0360631
        k(   50) = (   0.0909091   0.3636364  -0.2727273), wk =   0.0180316
        k(   51) = (   0.0909091   0.4545455  -0.4545455), wk =   0.0180316
        k(   52) = (   0.0909091   0.4545455  -0.3636364), wk =   0.0180316
        k(   53) = (   0.1818182   0.3636364  -0.4545455), wk =   0.0180316
        k(   54) = (   0.1818182   0.3636364  -0.3636364), wk =   0.0360631
        k(   55) = (   0.1818182   0.4545455  -0.3636364), wk =   0.0180316
        k(   56) = (   0.1818182   0.4545455  -0.2727273), wk =   0.0180316

     Initial potential from superposition of free atoms

     starting charge    7.99888, renormalised to    8.00000
     Starting wfcs are   16 randomized atomic wfcs
     Checking if some PAW data can be deallocated...

     Self-consistent Calculation

     iteration #  1     ecut=    60.00 Ry     beta= 0.70
     Davidson diagonalization with overlap
     ethr =  1.00E-02,  avg # of iterations =  3.5

     Threshold (ethr) on eigenvalues was too large:
     Diagonalizing with lowered threshold

     Davidson diagonalization with overlap
     ethr =  7.00E-04,  avg # of iterations =  1.6

     total energy              =     -93.48416445 Ry
     Harris-Foulkes estimate   =     -93.49771550 Ry
     estimated scf accuracy    <       0.05555044 Ry

[...]

     total energy              =     -93.48660729 Ry
     Harris-Foulkes estimate   =     -93.48660729 Ry
     estimated scf accuracy    <          1.9E-11 Ry

     iteration #  8     ecut=    60.00 Ry     beta= 0.70
     Davidson diagonalization with overlap
     ethr =  2.42E-13,  avg # of iterations =  2.0

     End of self-consistent calculation

          k = 0.0000 0.0000 0.0000 (  2109 PWs)   bands (ev):

    -5.7616  -5.7616   6.2003   6.2003   6.2003   6.2003   6.2003   6.2003
     8.7631   8.7631   8.7631   8.7631

     occupation numbers
     1.0000   1.0000   1.0000   1.0000   1.0000   1.0000   1.0000   1.0000
     0.0000   0.0000   0.0000   0.0000

[...]

          k =-0.2571-0.3857 0.3857 (  2116 PWs)   bands (ev):

[...]

          k =-0.0643-0.4500 0.7071 (  2152 PWs)   bands (ev):

[...]

          k = 0.0000-0.3857 0.6428 (  2149 PWs)   bands (ev):

    -1.8369  -1.8369  -1.1001  -1.1001   2.0753   2.0753   2.7768   2.7768
     9.5416   9.5416  10.8189  10.8189

     occupation numbers
     1.0000   1.0000   1.0000   1.0000   1.0000   1.0000   1.0000   1.0000
     0.0000   0.0000   0.0000   0.0000

     highest occupied, lowest unoccupied level (ev):     6.2003    6.7983

!    total energy              =     -93.48660729 Ry
     Harris-Foulkes estimate   =     -93.48660729 Ry
     estimated scf accuracy    <          4.3E-13 Ry

     total all-electron energy =     -1160.178337 Ry

     The total energy is the sum of the following terms:

     one-electron contribution =       5.73715982 Ry
     hartree contribution      =       1.10051758 Ry
     xc contribution           =     -12.30839587 Ry
     ewald contribution        =     -16.79585050 Ry
     Dispersion Correction     =      -0.03335446 Ry
     one-center paw contrib.   =     -71.18668385 Ry
      -> PAW hartree energy AE =       2.97621720 Ry
      -> PAW hartree energy PS =      -2.96483286 Ry
      -> PAW xc energy AE      =     -40.87484507 Ry
      -> PAW xc energy PS      =       5.27011881 Ry
      -> total E_H with PAW    =       1.11190192 Ry
      -> total E_XC with PAW   =     -47.91312214 Ry

     convergence has been achieved in   8 iterations

     Forces acting on atoms (cartesian axes, Ry/au):

     atom    1 type  1   force =    -0.00000000   -0.00000000    0.00000000
     atom    2 type  1   force =     0.00000000    0.00000000   -0.00000000
     The non-local contrib.  to forces
     atom    1 type  1   force =    -0.00000000   -0.00000000    0.00000000
     atom    2 type  1   force =     0.00000000    0.00000000   -0.00000000
     The ionic contribution  to forces
     atom    1 type  1   force =    -0.00000000    0.00000000   -0.00000000
     atom    2 type  1   force =     0.00000000   -0.00000000    0.00000000
     The local contribution  to forces
     atom    1 type  1   force =    -0.00000000   -0.00000000    0.00000000
     atom    2 type  1   force =     0.00000000    0.00000000   -0.00000000
     The core correction contribution to forces
     atom    1 type  1   force =     0.00000000   -0.00000000   -0.00000000
     atom    2 type  1   force =    -0.00000000    0.00000000    0.00000000
     The Hubbard contrib.    to forces
     atom    1 type  1   force =     0.00000000    0.00000000    0.00000000
     atom    2 type  1   force =     0.00000000    0.00000000    0.00000000
     The SCF correction term to forces
     atom    1 type  1   force =    -0.00000000   -0.00000000   -0.00000000
     atom    2 type  1   force =    -0.00000000    0.00000000    0.00000000

     Dispersion contribution to forces:
     atom    1 type  1   force =     0.00000000   -0.00000000   -0.00000000
     atom    2 type  1   force =    -0.00000000    0.00000000   -0.00000000

     Total force =     0.000000     Total SCF correction =     0.000000

     Total Dispersion Force =     0.000000

     Computing stress (Cartesian axis) and pressure

     Message from routine stres:
     noncollinear stress + GGA not implemented

     Writing output data file GS.save/

     General routines

     Parallel routines

     PAW routines

   This run was terminated on:  16:51:26   3Aug2019

   JOB DONE.